\ This file has been generated by DOcplex
\ ENCODING=ISO-8859-1
\Problem name: recycling problem

Maximize
 obj: [ 18.299346776159 a0_u0*a1_u0_x0 + 19.019288265556 a0_u0*a1_u1_x0
      + 11.680154025948 a0_u0*a1_u2_x0 + 20.863545934970 a0_u1*a1_u0_x0
      + 21.579798102896 a0_u1*a1_u1_x0 + 17.000566171106 a0_u1*a1_u2_x0
      + 15.906345374177 a0_u2*a1_u0_x0 + 18.669262831078 a0_u2*a1_u1_x0
      + 22.965282324269 a0_u2*a1_u2_x0 ]/2
Subject To
 c1: 17.628165504488 aj_u0_x0 + 21.048216833964 aj_u1_x0
     + 20.444089337243 aj_u2_x0 + 19.156613817865 aj_u3_x0
     + 19.436097731675 aj_u4_x0 + 31.150654423705 aj_u5_x0
     + 19.175579360117 aj_u6_x0 + 22.573889960331 aj_u7_x0
     + 22.166576672825 aj_u8_x0 - 17.628165504488 a0_u0 - 19.156613817865 a0_u1
     - 19.175579360117 a0_u2 >= 0
 c2: 17.628165504488 aj_u0_x0 + 21.048216833964 aj_u1_x0
     + 20.444089337243 aj_u2_x0 + 19.156613817865 aj_u3_x0
     + 19.436097731675 aj_u4_x0 + 31.150654423705 aj_u5_x0
     + 19.175579360117 aj_u6_x0 + 22.573889960331 aj_u7_x0
     + 22.166576672825 aj_u8_x0 - 21.048216833964 a0_u0 - 19.436097731675 a0_u1
     - 22.573889960331 a0_u2 >= 0
 c3: 17.628165504488 aj_u0_x0 + 21.048216833964 aj_u1_x0
     + 20.444089337243 aj_u2_x0 + 19.156613817865 aj_u3_x0
     + 19.436097731675 aj_u4_x0 + 31.150654423705 aj_u5_x0
     + 19.175579360117 aj_u6_x0 + 22.573889960331 aj_u7_x0
     + 22.166576672825 aj_u8_x0 - 20.444089337243 a0_u0 - 31.150654423705 a0_u1
     - 22.166576672825 a0_u2 >= 0
 c4: a0_u0 + a0_u1 + a0_u2 = 1
 c5: a1_u0_x0 + a1_u1_x0 + a1_u2_x0 = 1
 c6: aj_u0_x0 + aj_u1_x0 + aj_u2_x0 + aj_u3_x0 + aj_u4_x0 + aj_u5_x0 + aj_u6_x0
     + aj_u7_x0 + aj_u8_x0 = 1
 c7: a1_u0_x1 + a1_u1_x1 + a1_u2_x1 = 1
 c8: aj_u0_x1 + aj_u1_x1 + aj_u2_x1 + aj_u3_x1 + aj_u4_x1 + aj_u5_x1 + aj_u6_x1
     + aj_u7_x1 + aj_u8_x1 = 1
 c9: a1_u0_x2 + a1_u1_x2 + a1_u2_x2 = 1
 c10: aj_u0_x2 + aj_u1_x2 + aj_u2_x2 + aj_u3_x2 + aj_u4_x2 + aj_u5_x2 + aj_u6_x2
      + aj_u7_x2 + aj_u8_x2 = 1
 c11: a1_u0_x3 + a1_u1_x3 + a1_u2_x3 = 1
 c12: aj_u0_x3 + aj_u1_x3 + aj_u2_x3 + aj_u3_x3 + aj_u4_x3 + aj_u5_x3 + aj_u6_x3
      + aj_u7_x3 + aj_u8_x3 = 1
 c13: aj_u0_x0 + aj_u1_x0 + aj_u2_x0 - a0_u0 = 0
 c14: aj_u3_x0 + aj_u4_x0 + aj_u5_x0 - a0_u1 = 0
 c15: aj_u6_x0 + aj_u7_x0 + aj_u8_x0 - a0_u2 = 0
 c16: aj_u0_x1 + aj_u1_x1 + aj_u2_x1 - a0_u0 = 0
 c17: aj_u3_x1 + aj_u4_x1 + aj_u5_x1 - a0_u1 = 0
 c18: aj_u6_x1 + aj_u7_x1 + aj_u8_x1 - a0_u2 = 0
 c19: aj_u0_x2 + aj_u1_x2 + aj_u2_x2 - a0_u0 = 0
 c20: aj_u3_x2 + aj_u4_x2 + aj_u5_x2 - a0_u1 = 0
 c21: aj_u6_x2 + aj_u7_x2 + aj_u8_x2 - a0_u2 = 0
 c22: aj_u0_x3 + aj_u1_x3 + aj_u2_x3 - a0_u0 = 0
 c23: aj_u3_x3 + aj_u4_x3 + aj_u5_x3 - a0_u1 = 0
 c24: aj_u6_x3 + aj_u7_x3 + aj_u8_x3 - a0_u2 = 0
 c25: aj_u0_x0 + aj_u3_x0 + aj_u6_x0 - a1_u0_x0 = 0
 c26: aj_u1_x0 + aj_u4_x0 + aj_u7_x0 - a1_u1_x0 = 0
 c27: aj_u2_x0 + aj_u5_x0 + aj_u8_x0 - a1_u2_x0 = 0
 c28: aj_u0_x1 + aj_u3_x1 + aj_u6_x1 - a1_u0_x1 = 0
 c29: aj_u1_x1 + aj_u4_x1 + aj_u7_x1 - a1_u1_x1 = 0
 c30: aj_u2_x1 + aj_u5_x1 + aj_u8_x1 - a1_u2_x1 = 0
 c31: aj_u0_x2 + aj_u3_x2 + aj_u6_x2 - a1_u0_x2 = 0
 c32: aj_u1_x2 + aj_u4_x2 + aj_u7_x2 - a1_u1_x2 = 0
 c33: aj_u2_x2 + aj_u5_x2 + aj_u8_x2 - a1_u2_x2 = 0
 c34: aj_u0_x3 + aj_u3_x3 + aj_u6_x3 - a1_u0_x3 = 0
 c35: aj_u1_x3 + aj_u4_x3 + aj_u7_x3 - a1_u1_x3 = 0
 c36: aj_u2_x3 + aj_u5_x3 + aj_u8_x3 - a1_u2_x3 = 0

Bounds
       a0_u0 <= 1
       a0_u1 <= 1
       a0_u2 <= 1
 0 <= a1_u0_x0 <= 1
 0 <= a1_u1_x0 <= 1
 0 <= a1_u2_x0 <= 1
       aj_u0_x0 <= 1
       aj_u1_x0 <= 1
       aj_u2_x0 <= 1
       aj_u3_x0 <= 1
       aj_u4_x0 <= 1
       aj_u5_x0 <= 1
       aj_u6_x0 <= 1
       aj_u7_x0 <= 1
       aj_u8_x0 <= 1
 0 <= a1_u0_x1 <= 1
 0 <= a1_u1_x1 <= 1
 0 <= a1_u2_x1 <= 1
       aj_u0_x1 <= 1
       aj_u1_x1 <= 1
       aj_u2_x1 <= 1
       aj_u3_x1 <= 1
       aj_u4_x1 <= 1
       aj_u5_x1 <= 1
       aj_u6_x1 <= 1
       aj_u7_x1 <= 1
       aj_u8_x1 <= 1
 0 <= a1_u0_x2 <= 1
 0 <= a1_u1_x2 <= 1
 0 <= a1_u2_x2 <= 1
       aj_u0_x2 <= 1
       aj_u1_x2 <= 1
       aj_u2_x2 <= 1
       aj_u3_x2 <= 1
       aj_u4_x2 <= 1
       aj_u5_x2 <= 1
       aj_u6_x2 <= 1
       aj_u7_x2 <= 1
       aj_u8_x2 <= 1
 0 <= a1_u0_x3 <= 1
 0 <= a1_u1_x3 <= 1
 0 <= a1_u2_x3 <= 1
       aj_u0_x3 <= 1
       aj_u1_x3 <= 1
       aj_u2_x3 <= 1
       aj_u3_x3 <= 1
       aj_u4_x3 <= 1
       aj_u5_x3 <= 1
       aj_u6_x3 <= 1
       aj_u7_x3 <= 1
       aj_u8_x3 <= 1

Binaries
 a1_u0_x0 a1_u1_x0 a1_u2_x0 a1_u0_x1 a1_u1_x1 a1_u2_x1 a1_u0_x2 a1_u1_x2
 a1_u2_x2 a1_u0_x3 a1_u1_x3 a1_u2_x3
End
